c read Graph
c width = 325
c time = 400 ms
c width = 19
c time = 564 ms
c width = 18
c time = 2355 ms
c width = 17
c time = 5258 ms
c width = 16
c time = 7703 ms
c width = 15
c time = 13429 ms
c width = 14
c time = 22569 ms
c width = 14
c time = 23052 ms
s td 370 15 392
b 1 365 366
b 2 27 28
b 3 1 2 3
b 4 1 3 30
b 5 23 25 54 55
b 6 23 53 54 55
b 7 23 53 55 83
b 8 53 81 82 83
b 9 310 338 339 368
b 10 310 339 340 368
b 11 310 340 368 370
b 12 23 51 52 53
b 13 310 311 312 340
b 14 340 341 342 370
b 15 3 5 30 32
b 16 5 7 30 32 34
b 17 7 9 30 32 34 36
b 18 9 11 30 32 34 36 38
b 19 11 13 30 32 34 36 38 40
b 20 13 15 30 32 34 36 38 40 42
b 21 15 17 30 32 34 36 38 40 42 44
b 22 17 30 32 34 36 38 40 42 44 74 104 134 136 138 167
b 23 30 32 34 36 38 40 42 44 72 74 104 134 136 138 167
b 24 30 32 34 36 38 40 42 70 72 74 104 134 136 138 167
b 25 30 32 34 36 38 39 40 70 72 74 104 134 136 138 167
b 26 30 32 34 36 37 38 39 70 72 74 104 134 136 138 167
b 27 30 32 34 35 36 37 39 70 72 74 104 134 136 138 167
b 28 30 32 33 34 35 37 39 70 72 74 104 134 136 138 167
b 29 30 31 32 33 35 37 39 70 72 74 104 134 136 138 167
b 30 30 31 33 35 37 39 60 70 72 74 104 134 136 138 167
b 31 30 33 35 37 39 60 62 70 72 74 104 134 136 138 167
b 32 30 35 37 39 60 62 64 70 72 74 104 134 136 138 167
b 33 30 37 39 60 62 64 66 70 72 74 104 134 136 138 167
b 34 30 39 60 62 64 66 68 70 72 74 104 134 136 138 167
b 35 30 60 62 64 66 68 70 72 74 102 104 134 136 138 167
b 36 30 60 62 64 66 68 70 71 72 102 104 134 136 138 167
b 37 30 60 62 64 66 68 69 70 71 102 104 134 136 138 167
b 38 30 60 62 64 66 67 68 69 71 102 104 134 136 138 167
b 39 30 60 62 64 65 66 67 69 71 102 104 134 136 138 167
b 40 30 60 62 63 64 65 67 69 71 102 104 134 136 138 167
b 41 30 60 61 62 63 65 67 69 71 102 104 134 136 138 167
b 42 30 59 60 61 63 65 67 69 71 102 104 134 136 138 167
b 43 30 59 61 63 65 67 69 71 86 102 104 134 136 138 167
b 44 59 61 63 65 67 69 71 86 88 102 104 134 136 138 167
b 45 61 63 65 67 69 71 86 88 90 102 104 134 136 138 167
b 46 63 65 67 69 71 86 88 90 92 102 104 134 136 138 167
b 47 65 67 69 71 86 88 90 92 94 102 104 134 136 138 167
b 48 67 69 71 86 88 90 92 94 96 102 104 134 136 138 167
b 49 69 71 86 88 90 92 94 96 98 102 104 134 136 138 167
b 50 71 86 88 90 92 94 96 98 100 102 104 134 136 138 167
b 51 86 88 90 92 94 96 98 100 102 103 104 134 136 138 167
b 52 86 88 90 92 94 96 98 100 101 102 103 134 136 138 167
b 53 86 88 90 92 94 96 98 99 100 101 103 134 136 138 167
b 54 86 88 90 92 94 96 97 98 99 101 103 134 136 138 167
b 55 86 88 90 92 94 95 96 97 99 101 103 134 136 138 167
b 56 86 88 90 92 93 94 95 97 99 101 103 134 136 138 167
b 57 86 88 90 91 92 93 95 97 99 101 103 134 136 138 167
b 58 86 88 89 90 91 93 95 97 99 101 103 134 136 138 167
b 59 86 88 89 91 93 95 97 99 101 103 118 134 136 138 167
b 60 86 88 91 93 95 97 99 101 103 118 120 134 136 138 167
b 61 86 88 93 95 97 99 101 103 118 120 122 134 136 138 167
b 62 86 88 95 97 99 101 103 118 120 122 124 134 136 138 167
b 63 86 88 97 99 101 103 118 120 122 124 126 134 136 138 167
b 64 86 88 99 101 103 118 120 122 124 126 128 134 136 138 167
b 65 86 88 101 103 118 120 122 124 126 128 130 134 136 138 167
b 66 86 88 103 118 120 122 124 126 128 130 132 134 136 138 167
b 67 86 88 118 120 122 124 126 128 130 132 134 136 137 138 167
b 68 86 88 118 120 122 124 126 128 130 132 134 135 136 137 167
b 69 86 88 118 120 122 124 126 128 130 132 134 135 137 162 167
b 70 86 88 118 120 122 124 126 128 130 132 135 137 160 162 167
b 71 86 88 118 120 122 124 126 128 129 130 135 137 160 162 167
b 72 86 88 118 120 122 124 126 128 129 135 137 158 160 162 167
b 73 86 88 118 120 122 124 126 128 135 137 158 160 162 164 167
b 74 86 88 118 120 122 124 126 128 137 158 160 162 164 166 167
b 75 86 88 118 120 122 124 126 128 158 160 162 164 165 166 167
b 76 86 88 118 120 122 124 126 128 158 160 162 163 164 165 167
b 77 86 88 118 120 122 124 126 128 158 160 161 162 163 165 167
b 78 86 88 118 120 122 124 126 128 158 159 160 161 163 165 167
b 79 86 88 118 120 122 124 126 128 158 159 161 163 165 167 188
b 80 86 88 118 120 122 124 126 128 158 161 163 165 167 188 190
b 81 86 88 118 120 122 124 126 128 158 163 165 167 188 190 192
b 82 86 88 118 120 122 124 126 128 158 165 167 188 190 192 194
b 83 86 88 118 120 122 124 126 128 158 167 188 190 192 194 195
b 84 86 88 118 120 122 124 126 128 158 188 190 192 193 194 195
b 85 86 88 118 120 122 124 126 128 158 188 190 191 192 193 195
b 86 86 88 118 120 122 124 126 128 158 188 190 191 193 195 220
b 87 86 88 118 120 122 124 126 128 158 188 190 193 195 220 222
b 88 86 88 118 120 122 124 126 128 158 188 190 195 220 222 223
b 89 86 88 118 120 122 124 126 128 158 188 190 220 221 222 223
b 90 86 88 118 120 122 124 126 128 158 188 190 220 221 223 250
b 91 86 88 118 120 122 124 126 128 158 188 190 220 223 250 279
b 92 223 250 251 279
b 93 86 88 118 120 122 124 126 128 156 158 188 190 220 250 279
b 94 86 88 118 120 122 124 125 126 156 158 188 190 220 250 279
b 95 86 88 118 120 122 123 124 125 156 158 188 190 220 250 279
b 96 86 88 118 120 121 122 123 125 156 158 188 190 220 250 279
b 97 86 88 118 120 121 123 125 148 156 158 188 190 220 250 279
b 98 86 88 118 121 123 125 148 150 156 158 188 190 220 250 279
b 99 86 88 118 123 125 148 150 152 156 158 188 190 220 250 279
b 100 86 88 118 125 148 150 152 154 156 158 188 190 220 250 279
b 101 86 88 118 148 150 152 154 156 158 186 188 190 220 250 279
b 102 86 88 118 148 150 152 154 156 184 186 188 190 220 250 279
b 103 86 88 118 148 150 152 154 182 184 186 188 190 220 250 279
b 104 86 88 118 148 150 152 180 182 184 186 188 190 220 250 279
b 105 86 88 118 148 150 180 182 184 186 188 190 218 220 250 279
b 106 86 88 118 148 150 180 182 184 186 188 216 218 220 250 279
b 107 86 88 118 148 150 180 182 184 186 214 216 218 220 250 279
b 108 86 88 118 148 150 180 182 184 214 216 218 220 248 250 279
b 109 86 88 118 148 150 180 182 184 214 216 218 246 248 250 279
b 110 216 217 218 246
b 111 86 88 118 148 150 178 180 182 184 214 216 246 248 250 279
b 112 86 88 118 148 178 180 182 184 212 214 216 246 248 250 279
b 113 86 88 118 148 178 180 182 210 212 214 216 246 248 250 279
b 114 86 88 118 148 178 180 210 212 214 216 244 246 248 250 279
b 115 86 88 118 148 178 180 210 212 213 214 244 246 248 250 279
b 116 86 88 118 148 178 180 210 211 212 213 244 246 248 250 279
b 117 86 88 118 148 178 180 210 211 213 240 244 246 248 250 279
b 118 86 88 118 148 178 180 210 213 240 242 244 246 248 250 279
b 119 86 88 118 148 178 180 210 240 242 244 246 248 249 250 279
b 120 86 88 118 148 178 180 210 240 242 244 246 248 249 276 279
b 121 86 88 118 148 178 180 210 240 242 244 245 246 249 276 279
b 122 86 88 118 148 178 180 210 240 242 243 244 245 249 276 279
b 123 86 88 118 148 178 180 210 240 241 242 243 245 249 276 279
b 124 86 88 118 148 178 180 210 240 241 243 245 249 270 276 279
b 125 86 88 118 148 178 180 210 240 243 245 249 270 272 276 279
b 126 86 88 118 148 178 180 210 240 245 249 270 272 274 276 279
b 127 86 88 118 148 178 180 210 240 249 270 272 274 276 278 279
b 128 86 88 118 148 178 180 210 240 270 272 274 276 277 278 279
b 129 86 88 118 148 178 180 210 240 270 272 274 275 276 277 279
b 130 86 88 118 148 178 180 210 240 270 272 273 274 275 277 279
b 131 86 88 118 148 178 180 210 240 270 272 273 275 277 279 300
b 132 86 88 118 148 178 180 210 240 270 273 275 277 279 300 302
b 133 86 88 118 148 178 180 210 240 270 275 277 279 300 302 304
b 134 86 88 118 148 178 180 210 240 270 277 279 300 302 304 306
b 135 86 88 118 148 178 180 210 240 270 279 300 302 304 306 335
b 136 86 88 118 148 178 180 210 240 270 300 302 304 306 334 335
b 137 86 88 118 148 178 180 210 240 270 300 302 304 332 334 335
b 138 86 88 118 148 178 180 210 240 270 300 302 330 332 334 335
b 139 86 88 118 148 178 180 210 240 270 300 330 332 334 335 362
b 140 86 88 118 148 178 180 210 240 270 300 330 332 335 360 362
b 141 86 88 118 148 178 180 210 240 270 300 330 335 360 362 388
b 142 86 88 118 148 178 180 210 240 270 300 330 335 360 388
b 143 86 88 118 148 178 180 210 240 270 300 330 358 360 388
b 144 358 359 360 388
b 145 86 88 118 148 178 180 210 240 270 300 328 330 358 388
b 146 86 88 118 148 178 180 210 240 270 298 300 328 358 388
b 147 298 300 328 358 388
b 148 298 299 300 328
b 149 86 88 118 148 178 180 210 238 240 268 270 298 328 358 388
b 150 86 88 118 148 178 180 206 210 236 238 268 298 328 358 388
b 151 178 180 206 208 210 236 238
b 152 206 207 208 236
b 153 208 209 210 238
b 154 178 179 180 208
b 155 86 88 118 148 176 178 206 236 238 268 298 328 358 388
b 156 176 177 178 206
b 157 86 88 116 118 148 176 206 236 238 268 298 328 358 388
b 158 86 116 118 146 148 176 206 236 238 268 298 328 358 388
b 159 86 116 142 144 146 176 206 236 238 268 298 328 358 388
b 160 142 144 146 172 174 176 206 236 238 268 298 328 358 388
b 161 142 146 172 174 176 204 206 236 238 268 298 328 358 388
b 162 174 175 176 204
b 163 142 172 174 204 206 236 238 266 268 298 328 358 388
b 164 236 237 238 266
b 165 142 172 174 204 206 236 266 268 296 298 328 358 388
b 166 266 267 268 296
b 167 142 172 174 204 206 234 236 266 296 298 328 358 388
b 168 204 205 206 234
b 169 142 143 144 172
b 170 144 145 146 174
b 171 86 115 116 142 144
b 172 86 114 115 142
b 173 146 147 148 176
b 174 116 117 118 146
b 175 86 87 88 116
b 176 238 239 240 268
b 177 268 269 270 298
b 178 328 329 330 358 388
b 179 335 360 362 388 390
b 180 335 362 363 390
b 181 360 361 362 390
b 182 330 331 332 360
b 183 332 333 334 362
b 184 300 301 302 330
b 185 302 303 304 332
b 186 304 305 306 334
b 187 279 306 307 335
b 188 270 271 272 300
b 189 246 247 248 276
b 190 214 215 216 244
b 191 180 181 182 210
b 192 182 183 184 212
b 193 148 149 150 178
b 194 218 219 220 248
b 195 184 185 186 214
b 196 186 187 188 216
b 197 188 189 190 218 220 250 279
b 198 150 151 152 180
b 199 152 153 154 182
b 200 154 155 156 184
b 201 156 157 158 186
b 202 118 119 120 148
b 203 126 127 128 156
b 204 130 131 132 160
b 205 132 133 134 162
b 206 30 58 59 86
b 207 72 73 74 102
b 208 40 41 42 70
b 209 42 43 44 72
b 210 17 44 74 104 106 134 136 138 167
b 211 17 44 74 76 104 106 136 138 167
b 212 74 75 76 104
b 213 17 44 48 74 76 106 136 138 167
b 214 17 44 46 48 74 76
b 215 46 47 48 76
b 216 44 45 46 74
b 217 17 48 76 106 108 136 138 167
b 218 106 107 108 136
b 219 17 48 76 78 106 108 138 167
b 220 17 48 78 108 111 138 167
b 221 111 138 139 167
b 222 17 21 48 78 108 111 138
b 223 17 19 21 48
b 224 21 48 78 81 108 111 138
b 225 21 48 51 78 81 108 111
b 226 21 48 50 51 78
b 227 48 49 50 78
b 228 21 51 81 83 111
b 229 21 23 51 81 83
b 230 23 51 53 81 83
b 231 51 78 79 81 108
b 232 51 79 80 81
b 233 81 108 109 111 138
b 234 81 109 110 111
b 235 76 77 78 106
b 236 104 105 106 134
b 237 262 263 264 292
b 238 292 293 294 322
b 239 264 265 266 294
b 240 142 172 174 204 234 262 264 292 320 348 376
b 241 142 172 174 204 234 236 264 266 296 298 328 358 388
b 242 142 172 174 204 234 264 266 294 296 298 328 358 388
b 243 142 172 174 204 234 264 292 294 320 322 348 376
b 244 142 172 174 204 234 264 294 296 298 322 328 352 358 380 388
b 245 142 172 174 204 234 264 294 320 322 348 352 376 380
b 246 142 172 174 204 234 264 294 322 352 380 388
b 247 294 296 298 322 324 328 352 358 380 388
b 248 294 295 296 324
b 249 322 323 324 352
b 250 296 298 324 326 328 352 358 380 388
b 251 324 326 328 352 356 358 380 388
b 252 326 327 328 356
b 253 324 326 352 356 358 380 384 388
b 254 324 326 352 354 356 380 384
b 255 354 355 356 384
b 256 352 354 380 382 384
b 257 352 353 354 382
b 258 324 325 326 354
b 259 356 358 384 386 388
b 260 356 357 358 386
b 261 296 297 298 326
b 262 320 322 348 350 352 376 380
b 263 320 321 322 350
b 264 350 351 352 380
b 265 348 350 376 378 380
b 266 348 349 350 378
b 267 142 172 174 202 204 234 262 292 320 348 376
b 268 172 173 174 202
b 269 142 172 202 204 230 234 260 262 292 320 348 376
b 270 202 204 230 232 234 260 262
b 271 232 233 234 262
b 272 202 203 204 232
b 273 230 231 232 260
b 274 142 172 202 230 260 262 292 318 320 348 376
b 275 318 319 320 348
b 276 142 172 202 230 260 262 288 292 318 320 348 376
b 277 260 262 288 290 292 318 320
b 278 288 289 290 318
b 279 290 291 292 320
b 280 260 261 262 290
b 281 142 172 202 230 258 260 288 318 348 376
b 282 142 172 202 230 254 256 258 288 318 348 376
b 283 142 172 202 228 230 254 256 258
b 284 228 229 230 258
b 285 142 172 200 202 228 230 254 256
b 286 200 201 202 230
b 287 142 172 198 200 228 254 256
b 288 198 227 228 254 256
b 289 198 226 227 254
b 290 142 171 172 198 200
b 291 142 170 171 198
b 292 198 199 200 228
b 293 254 256 258 288 318 346 348 376
b 294 254 256 258 288 316 318 346 376
b 295 316 317 318 346
b 296 254 256 258 286 288 316 346 376
b 297 286 287 288 316
b 298 254 256 286 316 344 346 372 376
b 299 344 346 372 374 376
b 300 344 345 346 374
b 301 254 256 286 314 316 344 372
b 302 254 256 284 286 314 344 372
b 303 254 284 314 342 344 372
b 304 254 284 312 314 342 372
b 305 254 284 310 312 342 372
b 306 254 283 284 310 312
b 307 254 282 283 310
b 308 310 312 342 370 372
b 309 310 312 340 342 370
b 310 312 313 314 342
b 311 342 343 344 372
b 312 254 255 256 284
b 313 284 285 286 314
b 314 314 315 316 344
b 315 256 257 258 286
b 316 346 347 348 376
b 317 258 259 260 288
b 318 234 235 236 264
b 319 388 389 390
b 320 386 387 388
b 321 384 385 386
b 322 382 383 384
b 323 380 381 382
b 324 378 379 380
b 325 376 377 378
b 326 374 375 376
b 327 372 373 374
b 328 370 371 372
b 329 368 369 370
b 330 363 390 391
b 331 363 391 392
b 332 337 338 368
b 333 337 367 368
b 334 337 366 367
b 335 335 363 364
b 336 309 310 338
b 337 307 335 336
b 338 281 282 310
b 339 279 307 308
b 340 253 254 282
b 341 251 279 280
b 342 225 226 254
b 343 223 251 252
b 344 197 198 226
b 345 195 223 224
b 346 169 170 198
b 347 167 195 196
b 348 141 142 170
b 349 139 167 168
b 350 113 114 142
b 351 111 139 140
b 352 85 86 114
b 353 83 111 112
b 354 57 58 86
b 355 55 83 84
b 356 29 30 58
b 357 25 27 56
b 358 25 55 56
b 359 25 26 27
b 360 23 24 25
b 361 21 22 23
b 362 19 20 21
b 363 17 18 19
b 364 15 16 17
b 365 13 14 15
b 366 11 12 13
b 367 9 10 11
b 368 7 8 9
b 369 5 6 7
b 370 3 4 5
1 334
2 357
3 4
4 15
5 360
5 358
5 6
6 7
7 355
7 230
8 230
9 336
9 332
9 10
10 11
11 329
11 309
12 230
13 309
14 309
15 370
15 16
16 369
16 17
17 368
17 18
18 367
18 19
19 366
19 20
20 365
20 21
21 364
21 22
22 210
22 23
23 209
23 24
24 208
24 25
25 26
26 27
27 28
28 29
29 30
30 31
31 32
32 33
33 34
34 35
35 207
35 36
36 37
37 38
38 39
39 40
40 41
41 42
42 43
43 206
43 44
44 45
45 46
46 47
47 48
48 49
49 50
50 51
51 52
52 53
53 54
54 55
55 56
56 57
57 58
58 59
59 60
60 61
61 62
62 63
63 64
64 65
65 66
66 67
67 68
68 69
69 205
69 70
70 204
70 71
71 72
72 73
73 74
74 75
75 76
76 77
77 78
78 79
79 80
80 81
81 82
82 83
83 347
83 84
84 85
85 86
86 87
87 88
88 345
88 89
89 90
90 91
91 93
91 92
92 343
92 341
93 203
93 94
94 95
95 96
96 97
97 202
97 98
98 99
99 100
100 101
101 201
101 102
102 200
102 103
103 199
103 104
104 198
104 105
105 197
105 106
106 196
106 107
107 195
107 108
108 194
108 109
109 111
109 110
111 193
111 112
112 192
112 113
113 191
113 114
114 190
114 115
115 116
116 117
117 118
118 119
119 120
120 189
120 121
121 122
122 123
123 124
124 125
125 126
126 127
127 128
128 129
129 130
130 131
131 188
131 132
132 133
133 134
134 135
135 187
135 136
136 186
136 137
137 185
137 138
138 184
138 139
139 183
139 140
140 182
140 141
141 179
141 143
141 142
143 145
143 144
145 178
145 146
146 149
146 148
146 147
149 176
149 177
149 150
150 155
150 151
151 154
151 153
151 152
155 157
155 156
157 175
157 158
158 173
158 174
158 159
159 171
159 160
160 169
160 170
160 161
161 162
161 163
163 164
163 165
165 167
165 166
167 241
167 168
171 172
172 352
172 350
179 319
179 180
179 181
180 335
180 330
187 339
187 337
206 356
206 354
210 236
210 211
211 213
211 212
213 217
213 214
214 215
214 216
217 218
217 219
219 235
219 220
220 221
220 222
221 351
221 349
222 223
222 224
223 363
223 362
224 225
224 233
225 231
225 226
225 228
226 227
228 353
228 229
229 361
229 230
231 232
233 234
237 240
238 243
239 242
240 267
240 243
241 318
241 242
242 244
243 245
244 247
244 246
245 262
245 246
247 248
247 249
247 250
250 261
250 251
251 252
251 253
253 259
253 254
254 258
254 255
254 256
256 323
256 322
256 257
259 321
259 320
259 260
262 263
262 264
262 265
265 325
265 324
265 266
267 268
267 269
269 270
269 274
270 272
270 273
270 271
274 275
274 276
276 277
276 281
277 280
277 278
277 279
281 317
281 282
282 283
282 293
283 284
283 285
285 286
285 287
287 292
287 290
287 288
288 289
289 344
289 342
290 291
291 348
291 346
293 316
293 294
294 295
294 296
296 315
296 297
296 298
298 299
298 301
299 327
299 326
299 300
301 314
301 302
302 312
302 313
302 303
303 311
303 304
304 310
304 305
305 306
305 308
306 307
307 340
307 338
308 328
308 309
330 331
332 333
333 334
357 359
357 358
